c SAT Generator for power-law distributed variable frequencies
c -g u -v 20 -c 91 -k 3 -p 2.750000 -b 3.200000 -f /home/schmidt/Devel/ni-kop-sat/data/ensemble/ruf20-91/ruf20-91-87 -u 1 -U 1 -s 3000549306
p cnf 20 91
-3 14 -16 0
-3 4 -11 0
-7 11 -17 0
6 13 14 0
-3 -9 -14 0
-9 -12 18 0
12 -16 -19 0
2 -5 19 0
-1 -2 13 0
-10 12 19 0
4 -14 17 0
-6 8 -10 0
-15 -18 20 0
-9 -11 18 0
-12 -17 19 0
-3 5 12 0
-4 6 -8 0
4 -9 -10 0
-6 -10 11 0
-1 2 20 0
-2 -7 9 0
-3 9 11 0
-3 -5 9 0
1 9 14 0
-11 14 -15 0
-1 -4 -5 0
-8 -11 -14 0
1 4 14 0
4 11 -18 0
4 -8 17 0
2 -9 -15 0
-4 -12 20 0
-3 4 -20 0
-4 -8 -16 0
2 8 15 0
-10 11 -14 0
2 -12 -20 0
4 -5 13 0
6 9 -18 0
-1 2 -16 0
-4 5 19 0
5 14 15 0
1 6 -17 0
-16 -18 19 0
-6 11 12 0
-1 -14 15 0
-6 -10 15 0
-2 -5 11 0
4 7 -16 0
10 -16 -17 0
-7 8 14 0
-1 -6 9 0
-1 -3 -16 0
9 13 -18 0
7 -8 -13 0
-6 -10 17 0
-7 -13 -20 0
-2 -11 -13 0
7 -14 17 0
10 -14 -20 0
-6 -11 -19 0
1 -8 11 0
1 13 20 0
-1 4 9 0
3 -11 19 0
-2 -5 15 0
-10 11 17 0
-5 11 17 0
-9 14 -15 0
-3 -7 -20 0
18 19 -20 0
4 13 17 0
9 10 18 0
5 -11 15 0
11 18 20 0
6 7 -11 0
11 13 19 0
5 -7 20 0
7 -16 17 0
-2 -7 -16 0
-13 -19 20 0
-5 12 -13 0
4 -15 -17 0
2 -5 -9 0
-10 -18 -19 0
-4 -12 13 0
-16 17 19 0
9 11 13 0
-4 15 -17 0
6 -10 19 0
-2 12 -19 0
